0 45 46
1 48 49
2 37 47
3 32 47
4 47 49
5 38 46
6 43 48
7 43 51
8 41 47
9 32 46
10 45 48
11 36 45
12 33 43
13 40 40
14 26 38
15 33 35
16 30 31
17 28 29
18 25 30
19 21 32
20 28 29
21 13 28
22 19 26
23 24 23
24 10 18
25 16 19
26 16 20
27 8 21
28 13 20
29 14 18
30 2 14
31 10 13
32 5 13
33 5 9
34 4 7
35 3 4
36 2 3
37 1 2
38 1 1
39 1 1

